111 130 64 6 94 32 120 20 4 173 77 40 137 163 186 80 157 122 63 156 141 125 76 185 112 123 171 14 70 39 50 159 135 109 103 30 53 116 60 56 183 5 115 99 90 136 162 189 46 150 54 127 26 154 9 145 176 106 98 117 138 35 178 49 169 71 133 194 85 62 16 28 52 129 34 69 158 87 8 58 198 27 15 1 121 97 153 38 47 2 17 188 161 193 25 146 21 199 196 79 18 3 19 124 179 140 142 24 11 61 172 128 75 82 177 143 167 100 113 151 57 152 86 165 48 67 88 12 23 84 105 174 65 37 42 175 119 13 68 118 191 92 101 108 72 78 164 45 180 81 184 22 155 91 95 104 134 197 166 149 7 83 44 33 74 102 73 131 187 93 59 190 66 110 43 168 89 192 147 148 96 170 126 139 51 31 160 10 55 114 41 195 36 132 29 144 182 0 181 107 

